\ENCODING=ISO-8859-1
\Problem name: IloCplex

Minimize
 obj1: 3 x_a_0 + 3 x_a_1 + 3 x_a_2 + x_a_3 + x_a_4 + x_a_5 + x_a_6 + 3 x_a_7
       + 2 x_a_8 + x_a_9 + 3 x_a_10 + x_a_11 + 1000000000 x_a_12
       + 1000000000 x_a_13 + 1000000000 x_a_14 + 1000000000 x_a_15
       + 1000000000 x_a_16 + 1000000000 x_a_17 + 1000000000 x_a_18
       + 1000000000 x_a_19 + 10000 x_a_20
Subject To
 c1:  y_a_12 + y_a_13 + y_a_14 + y_a_15 <= 33.3
 c2:  y_a_0 + y_a_1 + y_a_2 + y_a_3 + y_a_4  = 0
 c3:  - y_a_13 - y_a_0 + y_a_5  = 0
 c4:  - y_a_5 + y_a_6 + y_a_7 + y_a_17  = 0
 c5:  - y_a_6 + y_a_8 + y_a_9  = 0
 c6:  - y_a_8 + y_a_10 + y_a_19  = 0
 c7:  - y_a_9 + y_a_18  = 0
 c8:  - y_a_1  = 0
 c9:  - y_a_2  = 0
 c10: - y_a_3  = 0
 c11: - y_a_15 - y_a_7  = 0
 c12: - y_a_4  = 0
 c13: - y_a_10 + y_a_11  = 0
 c14: - y_a_11  = 0
 c15: - y_a_14  = 0
 c16:  = 0
 c17: - y_a_12  = 0
 c18:  = 0
 c19: y_a_16  = 0
 c20: y_a_12 + y_a_13 + y_a_14 + y_a_15 - y_a_20  = 0
 c21: - y_a_17 - y_a_19 - y_a_18 - y_a_16 + y_a_20  = 0
 c22: y_a_0 + 30 x_a_0 <= 30
 c23: y_a_1 + 6 x_a_1 <= 6
 c24: y_a_2 + 13 x_a_2 <= 13
 c25: y_a_3 + 19 x_a_3 <= 19
 c26: y_a_4 + 20 x_a_4 <= 20
 c27: y_a_5 + 37 x_a_5 <= 37
 c28: y_a_6 + 32 x_a_6 <= 32
 c29: y_a_7 + 35 x_a_7 <= 35
 c30: y_a_8 + 15 x_a_8 <= 15
 c31: y_a_9 + 22 x_a_9 <= 22
 c32: y_a_10 + 11 x_a_10 <= 11
 c33: y_a_11 + 40 x_a_11 <= 40
 c34: y_a_12 + 50000000 x_a_12 <= 50000000
 c35: y_a_13 + 50000000 x_a_13 <= 50000000
 c36: y_a_14 + 50000000 x_a_14 <= 50000000
 c37: y_a_15 + 50000000 x_a_15 <= 50000000
 c38: y_a_16 + 50000000 x_a_16 <= 50000000
 c39: y_a_17 + 50000000 x_a_17 <= 50000000
 c40: y_a_18 + 50000000 x_a_18 <= 50000000
 c41: y_a_19 + 50000000 x_a_19 <= 50000000
 c42: y_a_20 + 10000 x_a_20 <= 10000
Bounds
 0 <= y_a_12 <= 50000000
 0 <= y_a_13 <= 50000000
 0 <= y_a_14 <= 50000000
 0 <= y_a_15 <= 50000000
 0 <= y_a_0 <= 30
 0 <= y_a_1 <= 6
 0 <= y_a_2 <= 13
 0 <= y_a_3 <= 19
 0 <= y_a_4 <= 20
 0 <= y_a_5 <= 37
 0 <= y_a_6 <= 32
 0 <= y_a_7 <= 35
 0 <= y_a_17 <= 50000000
 0 <= y_a_8 <= 15
 0 <= y_a_9 <= 22
 0 <= y_a_10 <= 11
 0 <= y_a_19 <= 50000000
 0 <= y_a_18 <= 50000000
 0 <= y_a_11 <= 40
 0 <= y_a_16 <= 50000000
 0 <= y_a_20 <= 10000
 0 <= x_a_0 <= 1
 0 <= x_a_1 <= 1
 0 <= x_a_2 <= 1
 0 <= x_a_3 <= 1
 0 <= x_a_4 <= 1
 0 <= x_a_5 <= 1
 0 <= x_a_6 <= 1
 0 <= x_a_7 <= 1
 0 <= x_a_8 <= 1
 0 <= x_a_9 <= 1
 0 <= x_a_10 <= 1
 0 <= x_a_11 <= 1
 0 <= x_a_12 <= 1
 0 <= x_a_13 <= 1
 0 <= x_a_14 <= 1
 0 <= x_a_15 <= 1
 0 <= x_a_16 <= 1
 0 <= x_a_17 <= 1
 0 <= x_a_18 <= 1
 0 <= x_a_19 <= 1
 0 <= x_a_20 <= 1
Binaries
 x_a_0  x_a_1  x_a_2  x_a_3  x_a_4  x_a_5  x_a_6  x_a_7  x_a_8  x_a_9  x_a_10 
 x_a_11  x_a_12  x_a_13  x_a_14  x_a_15  x_a_16  x_a_17  x_a_18  x_a_19 
 x_a_20 
Generals
 y_a_12  y_a_13  y_a_14  y_a_15  y_a_0  y_a_1  y_a_2  y_a_3  y_a_4  y_a_5 
 y_a_6  y_a_7  y_a_17  y_a_8  y_a_9  y_a_10  y_a_19  y_a_18  y_a_11  y_a_16 
 y_a_20 
End
